50
5067 882 294 563 2252 2352 588 563 588 2646 5630 2058 588 4504 882 1176 294 882 2815 2646 294 1689 1470 563 3941 4504 294 2815 3378 1176 5067 1470 1126 1689 882 2646 1764 2815 2815 1470 3941 2058 294 294 3378 5630 1764 1470 1126 2058 
13833 33 11 1537 6148 88 22 1537 22 99 15370 77 22 12296 33 44 11 33 7685 99 11 4611 55 1537 10759 12296 11 7685 9222 44 13833 55 3074 4611 33 99 66 7685 7685 55 10759 77 11 11 9222 15370 66 55 3074 77 
50074
